
******************************************************************************
This program contains Ipopt, a library for large-scale nonlinear optimization.
 Ipopt is released as open source code under the Eclipse Public License (EPL).
         For more information visit http://projects.coin-or.org/Ipopt

This version of Ipopt was compiled from source code available at
    https://github.com/IDAES/Ipopt as part of the Institute for the Design of
    Advanced Energy Systems Process Systems Engineering Framework (IDAES PSE
    Framework) Copyright (c) 2018-2019. See https://github.com/IDAES/idaes-pse.

This version of Ipopt was compiled using HSL, a collection of Fortran codes
    for large-scale scientific computation.  All technical papers, sales and
    publicity material resulting from use of the HSL codes within IPOPT must
    contain the following acknowledgement:
        HSL, a collection of Fortran codes for large-scale scientific
        computation. See http://www.hsl.rl.ac.uk.
******************************************************************************

This is Ipopt version 3.13.2, running with linear solver ma27.

Number of nonzeros in equality constraint Jacobian...:      808
Number of nonzeros in inequality constraint Jacobian.:        0
Number of nonzeros in Lagrangian Hessian.............:      702

Total number of variables............................:      351
                     variables with only lower bounds:      108
                variables with lower and upper bounds:      189
                     variables with only upper bounds:        0
Total number of equality constraints.................:      350
Total number of inequality constraints...............:        0
        inequality constraints with only lower bounds:        0
   inequality constraints with lower and upper bounds:        0
        inequality constraints with only upper bounds:        0

iter    objective    inf_pr   inf_du lg(mu)  ||d||  lg(rg) alpha_du alpha_pr  ls
   0  0.0000000e+00 4.79e-01 2.65e-23  -1.0 0.00e+00    -  0.00e+00 0.00e+00   0
   1  3.4848235e-01 4.20e-01 1.70e+03  -1.0 2.86e+05    -  6.77e-01 1.27e-01h  1
   2  4.0011001e-01 4.15e-01 1.77e+03  -1.0 3.15e+05    -  7.00e-01 1.03e-02h  1
   3  2.9358552e+01 7.01e-02 1.54e+04  -1.0 3.22e+05    -  7.06e-01 9.90e-01h  1
   4  4.0555119e+01 3.07e-03 3.00e+02  -1.0 6.50e+04    -  9.33e-01 9.90e-01h  1
   5  4.1018250e+01 3.55e-05 3.71e+01  -1.0 2.58e+03    -  9.90e-01 9.90e-01h  1
   6  4.1019092e+01 3.49e-05 1.13e+07  -1.0 5.15e+02    -  9.90e-01 1.55e-02f  7
   7  4.1022660e+01 3.39e-05 2.22e+07  -1.0 1.15e+03    -  9.90e-01 3.09e-02f  6
   8  4.1136249e+01 5.92e-04 3.43e+05  -1.0 1.15e+03    -  1.00e+00 9.90e-01h  1
   9  4.1135299e+01 5.90e-06 1.21e+07  -1.0 1.01e+01    -  1.00e+00 9.90e-01h  1
iter    objective    inf_pr   inf_du lg(mu)  ||d||  lg(rg) alpha_du alpha_pr  ls
  10  4.1135288e+01 5.90e-08 1.21e+09  -1.0 1.23e-01    -  1.00e+00 9.90e-01h  1
  11  4.1135288e+01 5.90e-10 1.21e+11  -1.0 1.23e-03    -  1.00e+00 9.90e-01h  1
In iteration 11, 27 Slacks too small, adjusting variable bounds
  12  4.1135288e+01 6.76e-12 1.21e+13  -1.0 1.23e-05    -  1.00e+00 9.90e-01h  1
  13  4.1135288e+01 8.91e-12 9.96e-02  -1.0 5.54e-07    -  1.00e+00 1.00e+00h  1
  14  4.1135281e+01 2.16e-12 1.24e+13  -9.0 1.33e+03    -  9.98e-01 5.38e-05f 15
  15  4.1135274e+01 4.15e-12 1.24e+13  -9.0 1.17e+03    -  9.99e-01 6.10e-05f 15
  16  4.1135267e+01 6.36e-12 1.24e+13  -9.0 1.17e+03    -  1.00e+00 6.10e-05f 15
  17  4.1135265e+01 6.71e-12 1.24e+13  -9.0 1.17e+03    -  1.00e+00 1.53e-05f 17
  18  4.1135264e+01 6.82e-12 1.24e+13  -9.0 1.17e+03    -  1.00e+00 1.53e-05f 17
  19  4.1023286e+01 6.78e-04 8.80e+05  -9.0 1.17e+03    -  1.00e+00 1.00e+00f  1
iter    objective    inf_pr   inf_du lg(mu)  ||d||  lg(rg) alpha_du alpha_pr  ls
  20  4.1022267e+01 2.52e-09 1.80e-04  -9.0 1.02e+01    -  1.00e+00 1.00e+00h  1
  21  4.1022267e+01 3.43e-12 1.46e-11  -9.0 7.06e-05    -  1.00e+00 1.00e+00h  1

Number of Iterations....: 21

                                   (scaled)                 (unscaled)
Objective...............:   4.1022267189560004e+01    4.1022267189560004e+01
Dual infeasibility......:   1.4551915228366852e-11    1.4551915228366852e-11
Constraint violation....:   3.4336977705606841e-12    3.4336977705606841e-12
Complementarity.........:   9.0909100346526981e-10    9.0909100346526981e-10
Overall NLP error.......:   1.4683698112480963e-11    9.0909100346526981e-10


Number of objective function evaluations             = 125
Number of objective gradient evaluations             = 22
Number of equality constraint evaluations            = 125
Number of inequality constraint evaluations          = 0
Number of equality constraint Jacobian evaluations   = 22
Number of inequality constraint Jacobian evaluations = 0
Number of Lagrangian Hessian evaluations             = 21
Total CPU secs in IPOPT (w/o function evaluations)   =      0.046
Total CPU secs in NLP function evaluations           =      0.893

EXIT: Optimal Solution Found.
